27 6
15 20 14 10 12 11
1 0 0 0 0 0 0 3 2 3 4
6 9 8 0 0 4 0 4 5 6 7 8
1 1 0 5 10 8 10 4 5 6 7 8
6 6 0 0 2 3 1 2 5 7
1 0 0 5 0 3 0 2 9 10
5 0 4 0 0 0 0 4 9 10 11 12
2 0 7 8 6 0 3 2 9 10
2 4 0 2 1 5 6 2 9 11
1 5 10 0 0 0 0 1 14
9 9 5 5 0 3 0 2 13 14
2 0 8 0 8 0 2 2 14 15
1 0 0 10 0 0 2 2 14 16
9 0 6 5 0 3 0 4 17 18 19 20
4 10 3 0 3 0 0 2 18 20
1 5 7 0 0 0 0 2 17 20
2 0 4 0 0 0 1 2 18 20
9 8 7 4 0 0 0 2 22 24
1 0 0 0 0 0 0 2 22 24
1 0 0 7 0 5 7 1 24
1 0 8 4 0 2 0 4 21 22 23 24
6 1 5 0 2 9 0 1 25
7 1 5 0 0 3 0 1 26
1 9 0 0 0 0 6 2 25 26
1 0 0 0 0 10 4 1 26
3 0 7 10 4 0 0 1 27
3 6 3 0 0 0 8 1 27
0 0 0 0 0 0 0 0
